10	5
0	5	2	1	3	5	4
1	2	8	9
2	1	7
3	4	6	10	8	7
4	2	10	9
5	1	11
6	1	11
7	1	11
8	1	11
9	1	11
10	1	11
11	0
0	0	0	0	0	0	0
1	3	1	3	3	1	1
2	2	4	4	3	2	3
3	9	5	1	5	2	4
4	7	1	5	1	2	3
5	8	1	4	1	3	4
6	5	4	3	1	5	2
7	7	5	3	5	2	1
8	1	1	4	3	3	1
9	8	2	3	3	2	5
10	2	2	2	4	4	2
11	0	0	0	0	0	0
5	5	5	5	5
